NAME: st70
COMMENT: Quick (5min) local search tour for st70 (758.8788947524988)
TYPE: TOUR
DIMENSION: 70
TOUR_SECTION: 1 29 13 31 69 70 35 57 15 24 2 7 32 3 26 55 49 28 8 14 20 30 44 68 27 46 25 45 39 61 40 9 17 43 41 6 42 18 4 19 63 38 59 22 66 53 5 50 51 11 64 65 56 67 48 62 54 33 34 21 12 60 52 10 58 37 47 16 23 36 -1
EOF